output/mimicry_ilp.lp
Maximize
  2.75359e-05 Z_653_0_0 + 0.00352389495976696 Z_653_0_1
   + 0.8582707614301697 Z_653_0_2 + 0.00455393372033908 Z_653_0_3
   + 0.0336238739971248 Z_653_0_4 + 6.73688e-05 Z_667_0_0
   + 0.00987608983410662 Z_667_0_1 + 0.8592868355414517 Z_667_0_2
   + 0.00204017530521192 Z_667_0_3 + 0.028729530548484 Z_667_0_4
Subject To
 constraint1_6530: Z_653_0_0 + Z_653_0_1 + Z_653_0_2 + Z_653_0_3
   + Z_653_0_4 <= 1
 constraint1_6670: Z_667_0_0 + Z_667_0_1 + Z_667_0_2 + Z_667_0_3
   + Z_667_0_4 <= 1
 constraint2_6530: Z_653_0_0 <= 1
 constraint2_6531: Z_653_0_1 <= 1
 constraint2_6532: Z_653_0_2 <= 1
 constraint2_6533: Z_653_0_3 <= 1
 constraint2_2710: <= 1
 constraint2_2711: <= 1
 constraint2_2712: <= 1
 constraint2_2713: <= 1
 constraint2_6670: Z_667_0_0 <= 1
 constraint2_6671: Z_667_0_1 <= 1
 constraint2_6672: Z_667_0_2 <= 1
 constraint2_6673: Z_667_0_3 <= 1
Bounds
Binaries
 Z_653_0_0 Z_653_0_1 Z_653_0_2 Z_653_0_3 Z_653_0_4 Z_667_0_0 Z_667_0_1
 Z_667_0_2 Z_667_0_3 Z_667_0_4
End
