output/mimicry_ilp.mps
NAME mimicry_srl_ilp
* Max problem is converted into Min one
ROWS
 N  OBJ
 L  constraint1_6530
 L  constraint1_6670
 L  constraint2_6530
 L  constraint2_6531
 L  constraint2_6532
 L  constraint2_6533
 L  constraint2_2710
 L  constraint2_2711
 L  constraint2_2712
 L  constraint2_2713
 L  constraint2_6670
 L  constraint2_6671
 L  constraint2_6672
 L  constraint2_6673
COLUMNS
    MARKER    'MARKER'                 'INTORG'
    Z_653_0_0  OBJ       -2.7535892599527558e-05
    Z_653_0_0  constraint1_6530  1
    Z_653_0_0  constraint2_6530  1
    Z_653_0_1  OBJ       -3.5238949597669552e-03
    Z_653_0_1  constraint1_6530  1
    Z_653_0_1  constraint2_6531  1
    Z_653_0_2  OBJ       -8.5827076143016967e-01
    Z_653_0_2  constraint1_6530  1
    Z_653_0_2  constraint2_6532  1
    Z_653_0_3  OBJ       -4.5539337203390848e-03
    Z_653_0_3  constraint1_6530  1
    Z_653_0_3  constraint2_6533  1
    Z_653_0_4  OBJ       -3.3623873997124833e-02
    Z_653_0_4  constraint1_6530  1
    Z_667_0_0  OBJ       -6.7368770745773203e-05
    Z_667_0_0  constraint1_6670  1
    Z_667_0_0  constraint2_6670  1
    Z_667_0_1  OBJ       -9.8760898341066234e-03
    Z_667_0_1  constraint1_6670  1
    Z_667_0_1  constraint2_6671  1
    Z_667_0_2  OBJ       -8.5928683554145169e-01
    Z_667_0_2  constraint1_6670  1
    Z_667_0_2  constraint2_6672  1
    Z_667_0_3  OBJ       -2.0401753052119217e-03
    Z_667_0_3  constraint1_6670  1
    Z_667_0_3  constraint2_6673  1
    Z_667_0_4  OBJ       -2.8729530548484043e-02
    Z_667_0_4  constraint1_6670  1
    MARKER    'MARKER'                 'INTEND'
RHS
    RHS1      constraint1_6530  1
    RHS1      constraint1_6670  1
    RHS1      constraint2_6530  1
    RHS1      constraint2_6531  1
    RHS1      constraint2_6532  1
    RHS1      constraint2_6533  1
    RHS1      constraint2_2710  1
    RHS1      constraint2_2711  1
    RHS1      constraint2_2712  1
    RHS1      constraint2_2713  1
    RHS1      constraint2_6670  1
    RHS1      constraint2_6671  1
    RHS1      constraint2_6672  1
    RHS1      constraint2_6673  1
BOUNDS
 UP BND1      Z_653_0_0  1
 UP BND1      Z_653_0_1  1
 UP BND1      Z_653_0_2  1
 UP BND1      Z_653_0_3  1
 UP BND1      Z_653_0_4  1
 UP BND1      Z_667_0_0  1
 UP BND1      Z_667_0_1  1
 UP BND1      Z_667_0_2  1
 UP BND1      Z_667_0_3  1
 UP BND1      Z_667_0_4  1
ENDATA
